Route #1: 3 57 30 61 62 9
Route #2: 63 48 25 21 54 55 56 15
Route #3: 12 45 52 22 58 13 28
Route #4: 5 60 64 34 6 36
Route #5: 46 4 39 42 44 40 53
Route #6: 14 50 11 35 49 1 29
Route #7: 51 8 23 37 65 32
Route #8: 59 24 19 20 7 38
Route #9: 17 10 27 43 16 41 66 2
Route #10: 47 33 26 18 31
Cost 1118